(declare-const o240 (_ BitVec 16))

(declare-const o140 (_ BitVec 16))

(declare-const o040 (_ BitVec 16))

(declare-const o430 (_ BitVec 16))

(declare-const o330 (_ BitVec 16))

(declare-const o230 (_ BitVec 16))

(declare-const o130 (_ BitVec 16))

(declare-const o030 (_ BitVec 16))

(declare-const o420 (_ BitVec 16))

(declare-const o320 (_ BitVec 16))

(declare-const o220 (_ BitVec 16))

(declare-const o120 (_ BitVec 16))

(declare-const o020 (_ BitVec 16))

(declare-const o410 (_ BitVec 16))

(declare-const o310 (_ BitVec 16))

(declare-const o210 (_ BitVec 16))

(declare-const o110 (_ BitVec 16))

(declare-const o010 (_ BitVec 16))

(declare-const o40 (_ BitVec 16))

(declare-const o30 (_ BitVec 16))

(declare-const o25 (_ BitVec 16))

(declare-const o15 (_ BitVec 16))

(declare-const o00 (_ BitVec 16))

(declare-const tmp24 (_ BitVec 16))

(declare-const tmp23 (_ BitVec 16))

(declare-const tmp22 (_ BitVec 16))

(declare-const tmp21 (_ BitVec 16))

(declare-const tmp14 (_ BitVec 16))

(declare-const tmp13 (_ BitVec 16))

(declare-const tmp12 (_ BitVec 16))

(declare-const tmp11 (_ BitVec 16))

(declare-const f44 (_ BitVec 16))

(declare-const f29 (_ BitVec 16))

(declare-const f43 (_ BitVec 16))

(declare-const f28 (_ BitVec 16))

(declare-const f42 (_ BitVec 16))

(declare-const f27 (_ BitVec 16))

(declare-const f41 (_ BitVec 16))

(declare-const f26 (_ BitVec 16))

(declare-const f40 (_ BitVec 16))

(declare-const f25 (_ BitVec 16))

(declare-const f34 (_ BitVec 16))

(declare-const f19 (_ BitVec 16))

(declare-const f33 (_ BitVec 16))

(declare-const f18 (_ BitVec 16))

(declare-const f32 (_ BitVec 16))

(declare-const f17 (_ BitVec 16))

(declare-const f31 (_ BitVec 16))

(declare-const f16 (_ BitVec 16))

(declare-const f30 (_ BitVec 16))

(declare-const f15 (_ BitVec 16))

(declare-const f24 (_ BitVec 16))

(declare-const f23 (_ BitVec 16))

(declare-const f22 (_ BitVec 16))

(declare-const f21 (_ BitVec 16))

(declare-const f20 (_ BitVec 16))

(declare-const f14 (_ BitVec 16))

(declare-const f13 (_ BitVec 16))

(declare-const f12 (_ BitVec 16))

(declare-const f11 (_ BitVec 16))

(declare-const f10 (_ BitVec 16))

(assert (= f30 f15))

(assert (= f31 f16))

(assert (= f32 f17))

(assert (= f33 f18))

(assert (= f34 f19))

(assert (= f40 f25))

(assert (= f41 f26))

(assert (= f42 f27))

(assert (= f43 f28))

(assert (= f44 f29))

(assert (= tmp11 (bvmul f21 (_ bv19 16))))

(assert (= tmp12 (bvmul f22 (_ bv19 16))))

(assert (= tmp13 (bvmul f23 (_ bv19 16))))

(assert (= tmp14 (bvmul f24 (_ bv19 16))))

(assert (= tmp21 (bvmul f26 (_ bv19 16))))

(assert (= tmp22 (bvmul f27 (_ bv19 16))))

(assert (= tmp23 (bvmul f28 (_ bv19 16))))

(assert (= tmp24 (bvmul f29 (_ bv19 16))))

(assert (= o00 (bvmul f10 f20)))

(assert (= o15 (bvmul f10 f21)))

(assert (= o25 (bvmul f10 f22)))

(assert (= o30 (bvmul f10 f23)))

(assert (= o40 (bvmul f10 f24)))

(assert (= o010 (bvadd (bvmul f10 f20) (bvmul f11 (bvmul f24 (_ bv19 16))))))

(assert (= o110 (bvadd (bvmul f10 f21) (bvmul f11 f20))))

(assert (= o210 (bvadd (bvmul f10 f22) (bvmul f11 f21))))

(assert (= o310 (bvadd (bvmul f10 f23) (bvmul f11 f22))))

(assert (= o410 (bvadd (bvmul f10 f24) (bvmul f11 f23))))

(assert (= o020 (bvadd (bvadd (bvmul f10 f20) (bvmul f11 (bvmul f24 (_ bv19 16)))) (bvmul f12 (bvmul f23 (_ bv19 16))))))

(assert (= o120 (bvadd (bvadd (bvmul f10 f21) (bvmul f11 f20)) (bvmul f12 (bvmul f24 (_ bv19 16))))))

(assert (= o220 (bvadd (bvadd (bvmul f10 f22) (bvmul f11 f21)) (bvmul f12 f20))))

(assert (= o320 (bvadd (bvadd (bvmul f10 f23) (bvmul f11 f22)) (bvmul f12 f21))))

(assert (= o420 (bvadd (bvadd (bvmul f10 f24) (bvmul f11 f23)) (bvmul f12 f22))))

(assert (= o030 (bvadd (bvadd (bvadd (bvmul f10 f20) (bvmul f11 (bvmul f24 (_ bv19 16)))) (bvmul f12 (bvmul f23 (_ bv19 16)))) (bvmul f13 (bvmul f22 (_ bv19 16))))))

(assert (= o130 (bvadd (bvadd (bvadd (bvmul f10 f21) (bvmul f11 f20)) (bvmul f12 (bvmul f24 (_ bv19 16)))) (bvmul f13 (bvmul f23 (_ bv19 16))))))

(assert (= o230 (bvadd (bvadd (bvadd (bvmul f10 f22) (bvmul f11 f21)) (bvmul f12 f20)) (bvmul f13 (bvmul f24 (_ bv19 16))))))

(assert (= o330 (bvadd (bvadd (bvadd (bvmul f10 f23) (bvmul f11 f22)) (bvmul f12 f21)) (bvmul f13 f20))))

(assert (= o430 (bvadd (bvadd (bvadd (bvmul f10 f24) (bvmul f11 f23)) (bvmul f12 f22)) (bvmul f13 f21))))

(assert (= o040 (bvadd (bvadd (bvadd (bvadd (bvmul f10 f20) (bvmul f11 (bvmul f24 (_ bv19 16)))) (bvmul f12 (bvmul f23 (_ bv19 16)))) (bvmul f13 (bvmul f22 (_ bv19 16)))) (bvmul f14 (bvmul f21 (_ bv19 16))))))

(assert (= o140 (bvadd (bvadd (bvadd (bvadd (bvmul f10 f21) (bvmul f11 f20)) (bvmul f12 (bvmul f24 (_ bv19 16)))) (bvmul f13 (bvmul f23 (_ bv19 16)))) (bvmul f14 (bvmul f22 (_ bv19 16))))))

(assert (= o240 (bvadd (bvadd (bvadd (bvadd (bvmul f10 f22) (bvmul f11 f21)) (bvmul f12 f20)) (bvmul f13 (bvmul f24 (_ bv19 16)))) (bvmul f14 (bvmul f23 (_ bv19 16))))))

(assert (not (= (_ bv0 16) f14)))

(check-sat)
